\ This file has been generated by DOcplex
\ ENCODING=ISO-8859-1
\Problem name: random_problem.lp

Minimize
 obj: 752 x0 + 376 x1 + 188 x2 - 192 x3 - 96 x4 - 48 x5 - 1180 x6 - 590 x7
      - 295 x8 + [ 6336 x0^2 + 6336 x0*x1 + 3168 x0*x2 + 2560 x0*x3 + 1280 x0*x4
      + 640 x0*x5 + 4096 x0*x6 + 2048 x0*x7 + 1024 x0*x8 + 1584 x1^2
      + 1584 x1*x2 + 1280 x1*x3 + 640 x1*x4 + 320 x1*x5 + 2048 x1*x6
      + 1024 x1*x7 + 512 x1*x8 + 396 x2^2 + 640 x2*x3 + 320 x2*x4 + 160 x2*x5
      + 1024 x2*x6 + 512 x2*x7 + 256 x2*x8 + 4096 x3^2 + 4096 x3*x4 + 2048 x3*x5
      + 2944 x3*x6 + 1472 x3*x7 + 736 x3*x8 + 1024 x4^2 + 1024 x4*x5
      + 1472 x4*x6 + 736 x4*x7 + 368 x4*x8 + 256 x5^2 + 736 x5*x6 + 368 x5*x7
      + 184 x5*x8 + 3136 x6^2 + 3136 x6*x7 + 1568 x6*x8 + 784 x7^2 + 784 x7*x8
      + 196 x8^2 ]/2
Subject To
 c0: 4 x0 + 2 x1 + x2 + 4 x3 + 2 x4 + x5 + 4 x6 + 2 x7 + x8 = 7

Bounds
 0 <= x0 <= 1
 0 <= x1 <= 1
 0 <= x2 <= 1
 0 <= x3 <= 1
 0 <= x4 <= 1
 0 <= x5 <= 1
 0 <= x6 <= 1
 0 <= x7 <= 1
 0 <= x8 <= 1

Binaries
 x0 x1 x2 x3 x4 x5 x6 x7 x8
End
